param n := 2;

param m := 2;

param K := 50;

param a :=
1 	 0.629718
2 	 0.210174
;
 param A :=
[1, *, *]:  1	2	:=
1	0.505511	-0.479370	
2	-0.866927	0.609509	

[2, *, *]:  1	2	:=
1	-0.613131	0.049341	
2	0.278922	0.849616	
;